benchmark/results/graph__15-1000-0.10-02_8/graph__15-1000-0.10-02_8_QuintonOs_Benders_primal_sub.lp
\ This file has been generated by DOcplex
\ ENCODING=ISO-8859-1
\Problem name: Quinton Bounded Benders_primal_sub

Maximize
 obj: tau
Subject To
 c1: tau <= 0.000892857143
 c2: y_a0_proc_0 + y_a0_proc_1 - tau = 0
 c3: y_a0_proc_0 <= 0
 c4: y_a0_proc_1 <= 1
 c5: tau <= 0.001182033097
 c6: y_a1_proc_0 + y_a1_proc_1 - tau = 0
 c7: y_a1_proc_0 <= 0
 c8: y_a1_proc_1 <= 1
 c9: tau <= 0.001280409731
 c10: y_a2_proc_0 + y_a2_proc_1 - tau = 0
 c11: y_a2_proc_0 <= 1
 c12: y_a2_proc_1 <= 0
 c13: tau <= 0.000952380952
 c14: y_a3_proc_0 + y_a3_proc_1 - tau = 0
 c15: y_a3_proc_0 <= 1
 c16: y_a3_proc_1 <= 0
 c17: tau <= 0.001165501166
 c18: y_a4_proc_0 + y_a4_proc_1 - tau = 0
 c19: y_a4_proc_0 <= 0
 c20: y_a4_proc_1 <= 1
 c21: tau <= 0.000949667616
 c22: y_a5_proc_0 + y_a5_proc_1 - tau = 0
 c23: y_a5_proc_0 <= 0
 c24: y_a5_proc_1 <= 1
 c25: tau <= 0.001234567901
 c26: y_a6_proc_0 + y_a6_proc_1 - tau = 0
 c27: y_a6_proc_0 <= 1
 c28: y_a6_proc_1 <= 0
 c29: tau <= 0.000938086304
 c30: y_a7_proc_0 - tau = 0
 c31: y_a7_proc_0 <= 1
 c32: tau <= 0.000910746812
 c33: y_a8_proc_0 - tau = 0
 c34: y_a8_proc_0 <= 1
 c35: tau <= 0.000959692898
 c36: y_a9_proc_0 - tau = 0
 c37: y_a9_proc_0 <= 1
 c38: tau <= 0.000954198473
 c39: y_a10_proc_0 - tau = 0
 c40: y_a10_proc_0 <= 1
 c41: tau <= 0.001154734411
 c42: y_a11_proc_0 + y_a11_proc_1 - tau = 0
 c43: y_a11_proc_0 <= 0
 c44: y_a11_proc_1 <= 1
 c45: tau <= 0.000919117647
 c46: y_a12_proc_0 + y_a12_proc_1 - tau = 0
 c47: y_a12_proc_0 <= 0
 c48: y_a12_proc_1 <= 1
 c49: tau <= 0.001824817518
 c50: y_a13_proc_1 - tau = 0
 c51: y_a13_proc_1 <= 1
 c52: tau <= 0.000834028357
 c53: y_a14_proc_1 - tau = 0
 c54: y_a14_proc_1 <= 1
 c55: u_a1 - u_a0 - 1105 y_a0_proc_0 - 1120 y_a0_proc_1 >= -1
 c56: u_a2 - u_a1 - 1199 y_a1_proc_0 - 846 y_a1_proc_1 >= -1
 c57: u_a2 - u_a3 - 1050 y_a3_proc_0 - 879 y_a3_proc_1 >= 0
 c58: u_a4 - u_a2 - 781 y_a2_proc_0 - 1141 y_a2_proc_1 >= 0
 c59: u_a0 - u_a5 - 731 y_a5_proc_0 - 1053 y_a5_proc_1 >= -1
 c60: u_a6 - u_a1 - 1199 y_a1_proc_0 - 846 y_a1_proc_1 >= 0
 c61: u_a7 - u_a4 - 1291 y_a4_proc_0 - 858 y_a4_proc_1 >= 0
 c62: u_a8 - u_a0 - 1105 y_a0_proc_0 - 1120 y_a0_proc_1 >= 0
 c63: u_a1 - u_a9 - 1042 y_a9_proc_0 >= 0
 c64: u_a4 - u_a10 - 1048 y_a10_proc_0 >= 0
 c65: u_a11 - u_a7 - 1066 y_a7_proc_0 >= 0
 c66: u_a12 - u_a7 - 1066 y_a7_proc_0 >= -1
 c67: u_a12 - u_a13 - 548 y_a13_proc_1 >= -1
 c68: u_a13 - u_a14 - 1199 y_a14_proc_1 >= 0
 c69: u_a3 - u_a12 - 1271 y_a12_proc_0 - 1088 y_a12_proc_1 >= 0
 c70: u_a9 - u_a8 - 1098 y_a8_proc_0 >= -1
 c71: u_a9 - u_a4 - 1291 y_a4_proc_0 - 858 y_a4_proc_1 >= -1
 c72: u_a11 - u_a13 - 548 y_a13_proc_1 >= 0
 c73: u_a11 - u_a6 - 810 y_a6_proc_0 - 867 y_a6_proc_1 >= 0
 c74: u_a9 - u_a2 - 781 y_a2_proc_0 - 1141 y_a2_proc_1 >= 0
 c75: u_a12 - u_a8 - 1098 y_a8_proc_0 >= -1
 c76: u_a0 - u_a8 - 1098 y_a8_proc_0 >= -1
 c77: u_a0 - u_a12 - 1271 y_a12_proc_0 - 1088 y_a12_proc_1 >= 0
 c78: u_a5 - u_a6 - 810 y_a6_proc_0 - 867 y_a6_proc_1 >= 0
 c79: u_a10 - u_a4 - 1291 y_a4_proc_0 - 858 y_a4_proc_1 >= -1
 c80: u_a1 - u_a6 - 810 y_a6_proc_0 - 867 y_a6_proc_1 >= -1
 c81: u_a14 - u_a10 - 1048 y_a10_proc_0 >= 0
 c82: - 1199 y_a14_proc_1 >= -1
 c83: u_a14 - u_a11 - 848 y_a11_proc_0 - 866 y_a11_proc_1 >= -1
 c84: u_a1 - u_a0 - 1105 y_a0_proc_0 >= -2583
 c85: u_a1 - u_a0 - 1120 y_a0_proc_1 >= -1
 c86: u_a0 - u_a1 - 1199 y_a1_proc_0 >= -2582
 c87: u_a0 - u_a1 - 846 y_a1_proc_1 >= 0
 c88: u_a2 - u_a0 - 1105 y_a0_proc_0 >= -1308
 c89: u_a2 - u_a0 - 1120 y_a0_proc_1 >= -1308
 c90: u_a0 - u_a2 - 781 y_a2_proc_0 >= -1275
 c91: u_a0 - u_a2 - 1141 y_a2_proc_1 >= -1275
 c92: u_a3 - u_a0 - 1105 y_a0_proc_0 >= -1308
 c93: u_a3 - u_a0 - 1120 y_a0_proc_1 >= -1308
 c94: u_a0 - u_a3 - 1050 y_a3_proc_0 >= -1275
 c95: u_a0 - u_a3 - 879 y_a3_proc_1 >= -1275
 c96: u_a4 - u_a0 - 1105 y_a0_proc_0 >= -2583
 c97: u_a4 - u_a0 - 1120 y_a0_proc_1 >= -1
 c98: u_a0 - u_a4 - 1291 y_a4_proc_0 >= -2582
 c99: u_a0 - u_a4 - 858 y_a4_proc_1 >= 0
 c100: u_a5 - u_a0 - 1105 y_a0_proc_0 >= -2582
 c101: u_a5 - u_a0 - 1120 y_a0_proc_1 >= 0
 c102: u_a0 - u_a5 - 731 y_a5_proc_0 >= -2583
 c103: u_a0 - u_a5 - 1053 y_a5_proc_1 >= -1
 c104: u_a6 - u_a0 - 1105 y_a0_proc_0 >= -1275
 c105: u_a6 - u_a0 - 1120 y_a0_proc_1 >= -1275
 c106: u_a0 - u_a6 - 810 y_a6_proc_0 >= -1308
 c107: u_a0 - u_a6 - 867 y_a6_proc_1 >= -1308
 c108: u_a7 - u_a0 - 1105 y_a0_proc_0 >= -1275
 c109: u_a0 - u_a7 - 1066 y_a7_proc_0 >= -1308
 c110: u_a8 - u_a0 - 1105 y_a0_proc_0 >= -1308
 c111: u_a0 - u_a8 - 1098 y_a8_proc_0 >= -1275
 c112: u_a9 - u_a0 - 1105 y_a0_proc_0 >= -1275
 c113: u_a0 - u_a9 - 1042 y_a9_proc_0 >= -1308
 c114: u_a10 - u_a0 - 1105 y_a0_proc_0 >= -1308
 c115: u_a0 - u_a10 - 1048 y_a10_proc_0 >= -1275
 c116: u_a11 - u_a0 - 1105 y_a0_proc_0 >= -2582
 c117: u_a11 - u_a0 - 1120 y_a0_proc_1 >= 0
 c118: u_a0 - u_a11 - 848 y_a11_proc_0 >= -2583
 c119: u_a0 - u_a11 - 866 y_a11_proc_1 >= -1
 c120: u_a12 - u_a0 - 1105 y_a0_proc_0 >= -2583
 c121: u_a12 - u_a0 - 1120 y_a0_proc_1 >= -1
 c122: u_a0 - u_a12 - 1271 y_a12_proc_0 >= -2582
 c123: u_a0 - u_a12 - 1088 y_a12_proc_1 >= 0
 c124: u_a13 - u_a0 - 1120 y_a0_proc_1 >= 0
 c125: u_a0 - u_a13 - 548 y_a13_proc_1 >= -1
 c126: u_a14 - u_a0 - 1120 y_a0_proc_1 >= -1
 c127: u_a0 - u_a14 - 1199 y_a14_proc_1 >= 0
 c128: u_a2 - u_a1 - 1199 y_a1_proc_0 >= -1308
 c129: u_a2 - u_a1 - 846 y_a1_proc_1 >= -1308
 c130: u_a1 - u_a2 - 781 y_a2_proc_0 >= -1275
 c131: u_a1 - u_a2 - 1141 y_a2_proc_1 >= -1275
 c132: u_a3 - u_a1 - 1199 y_a1_proc_0 >= -1308
 c133: u_a3 - u_a1 - 846 y_a1_proc_1 >= -1308
 c134: u_a1 - u_a3 - 1050 y_a3_proc_0 >= -1275
 c135: u_a1 - u_a3 - 879 y_a3_proc_1 >= -1275
 c136: u_a4 - u_a1 - 1199 y_a1_proc_0 >= -2583
 c137: u_a4 - u_a1 - 846 y_a1_proc_1 >= -1
 c138: u_a1 - u_a4 - 1291 y_a4_proc_0 >= -2582
 c139: u_a1 - u_a4 - 858 y_a4_proc_1 >= 0
 c140: u_a5 - u_a1 - 1199 y_a1_proc_0 >= -2582
 c141: u_a5 - u_a1 - 846 y_a1_proc_1 >= 0
 c142: u_a1 - u_a5 - 731 y_a5_proc_0 >= -2583
 c143: u_a1 - u_a5 - 1053 y_a5_proc_1 >= -1
 c144: u_a6 - u_a1 - 1199 y_a1_proc_0 >= -1308
 c145: u_a6 - u_a1 - 846 y_a1_proc_1 >= -1308
 c146: u_a1 - u_a6 - 810 y_a6_proc_0 >= -1275
 c147: u_a1 - u_a6 - 867 y_a6_proc_1 >= -1275
 c148: u_a7 - u_a1 - 1199 y_a1_proc_0 >= -1308
 c149: u_a1 - u_a7 - 1066 y_a7_proc_0 >= -1275
 c150: u_a8 - u_a1 - 1199 y_a1_proc_0 >= -1275
 c151: u_a1 - u_a8 - 1098 y_a8_proc_0 >= -1308
 c152: u_a9 - u_a1 - 1199 y_a1_proc_0 >= -1308
 c153: u_a1 - u_a9 - 1042 y_a9_proc_0 >= -1275
 c154: u_a10 - u_a1 - 1199 y_a1_proc_0 >= -1308
 c155: u_a1 - u_a10 - 1048 y_a10_proc_0 >= -1275
 c156: u_a11 - u_a1 - 1199 y_a1_proc_0 >= -2582
 c157: u_a11 - u_a1 - 846 y_a1_proc_1 >= 0
 c158: u_a1 - u_a11 - 848 y_a11_proc_0 >= -2583
 c159: u_a1 - u_a11 - 866 y_a11_proc_1 >= -1
 c160: u_a12 - u_a1 - 1199 y_a1_proc_0 >= -2583
 c161: u_a12 - u_a1 - 846 y_a1_proc_1 >= -1
 c162: u_a1 - u_a12 - 1271 y_a12_proc_0 >= -2582
 c163: u_a1 - u_a12 - 1088 y_a12_proc_1 >= 0
 c164: u_a13 - u_a1 - 846 y_a1_proc_1 >= 0
 c165: u_a1 - u_a13 - 548 y_a13_proc_1 >= -1
 c166: u_a14 - u_a1 - 846 y_a1_proc_1 >= -1
 c167: u_a1 - u_a14 - 1199 y_a14_proc_1 >= 0
 c168: u_a3 - u_a2 - 781 y_a2_proc_0 >= -1
 c169: u_a3 - u_a2 - 1141 y_a2_proc_1 >= -2583
 c170: u_a2 - u_a3 - 1050 y_a3_proc_0 >= 0
 c171: u_a2 - u_a3 - 879 y_a3_proc_1 >= -2582
 c172: u_a4 - u_a2 - 781 y_a2_proc_0 >= -1308
 c173: u_a4 - u_a2 - 1141 y_a2_proc_1 >= -1308
 c174: u_a2 - u_a4 - 1291 y_a4_proc_0 >= -1275
 c175: u_a2 - u_a4 - 858 y_a4_proc_1 >= -1275
 c176: u_a5 - u_a2 - 781 y_a2_proc_0 >= -1275
 c177: u_a5 - u_a2 - 1141 y_a2_proc_1 >= -1275
 c178: u_a2 - u_a5 - 731 y_a5_proc_0 >= -1308
 c179: u_a2 - u_a5 - 1053 y_a5_proc_1 >= -1308
 c180: u_a6 - u_a2 - 781 y_a2_proc_0 >= 0
 c181: u_a6 - u_a2 - 1141 y_a2_proc_1 >= -2582
 c182: u_a2 - u_a6 - 810 y_a6_proc_0 >= -1
 c183: u_a2 - u_a6 - 867 y_a6_proc_1 >= -2583
 c184: u_a7 - u_a2 - 781 y_a2_proc_0 >= 0
 c185: u_a2 - u_a7 - 1066 y_a7_proc_0 >= -1
 c186: u_a8 - u_a2 - 781 y_a2_proc_0 >= 0
 c187: u_a2 - u_a8 - 1098 y_a8_proc_0 >= -1
 c188: u_a9 - u_a2 - 781 y_a2_proc_0 >= 0
 c189: u_a2 - u_a9 - 1042 y_a9_proc_0 >= -1
 c190: u_a10 - u_a2 - 781 y_a2_proc_0 >= -1
 c191: u_a2 - u_a10 - 1048 y_a10_proc_0 >= 0
 c192: u_a11 - u_a2 - 781 y_a2_proc_0 >= -1308
 c193: u_a11 - u_a2 - 1141 y_a2_proc_1 >= -1308
 c194: u_a2 - u_a11 - 848 y_a11_proc_0 >= -1275
 c195: u_a2 - u_a11 - 866 y_a11_proc_1 >= -1275
 c196: u_a12 - u_a2 - 781 y_a2_proc_0 >= -1308
 c197: u_a12 - u_a2 - 1141 y_a2_proc_1 >= -1308
 c198: u_a2 - u_a12 - 1271 y_a12_proc_0 >= -1275
 c199: u_a2 - u_a12 - 1088 y_a12_proc_1 >= -1275
 c200: u_a13 - u_a2 - 1141 y_a2_proc_1 >= -1308
 c201: u_a2 - u_a13 - 548 y_a13_proc_1 >= -1275
 c202: u_a14 - u_a2 - 1141 y_a2_proc_1 >= -1275
 c203: u_a2 - u_a14 - 1199 y_a14_proc_1 >= -1308
 c204: u_a4 - u_a3 - 1050 y_a3_proc_0 >= -1308
 c205: u_a4 - u_a3 - 879 y_a3_proc_1 >= -1308
 c206: u_a3 - u_a4 - 1291 y_a4_proc_0 >= -1275
 c207: u_a3 - u_a4 - 858 y_a4_proc_1 >= -1275
 c208: u_a5 - u_a3 - 1050 y_a3_proc_0 >= -1308
 c209: u_a5 - u_a3 - 879 y_a3_proc_1 >= -1308
 c210: u_a3 - u_a5 - 731 y_a5_proc_0 >= -1275
 c211: u_a3 - u_a5 - 1053 y_a5_proc_1 >= -1275
 c212: u_a6 - u_a3 - 1050 y_a3_proc_0 >= 0
 c213: u_a6 - u_a3 - 879 y_a3_proc_1 >= -2582
 c214: u_a3 - u_a6 - 810 y_a6_proc_0 >= -1
 c215: u_a3 - u_a6 - 867 y_a6_proc_1 >= -2583
 c216: u_a7 - u_a3 - 1050 y_a3_proc_0 >= 0
 c217: u_a3 - u_a7 - 1066 y_a7_proc_0 >= -1
 c218: u_a8 - u_a3 - 1050 y_a3_proc_0 >= 0
 c219: u_a3 - u_a8 - 1098 y_a8_proc_0 >= -1
 c220: u_a9 - u_a3 - 1050 y_a3_proc_0 >= 0
 c221: u_a3 - u_a9 - 1042 y_a9_proc_0 >= -1
 c222: u_a10 - u_a3 - 1050 y_a3_proc_0 >= -1
 c223: u_a3 - u_a10 - 1048 y_a10_proc_0 >= 0
 c224: u_a11 - u_a3 - 1050 y_a3_proc_0 >= -1275
 c225: u_a11 - u_a3 - 879 y_a3_proc_1 >= -1275
 c226: u_a3 - u_a11 - 848 y_a11_proc_0 >= -1308
 c227: u_a3 - u_a11 - 866 y_a11_proc_1 >= -1308
 c228: u_a12 - u_a3 - 1050 y_a3_proc_0 >= -1308
 c229: u_a12 - u_a3 - 879 y_a3_proc_1 >= -1308
 c230: u_a3 - u_a12 - 1271 y_a12_proc_0 >= -1275
 c231: u_a3 - u_a12 - 1088 y_a12_proc_1 >= -1275
 c232: u_a13 - u_a3 - 879 y_a3_proc_1 >= -1275
 c233: u_a3 - u_a13 - 548 y_a13_proc_1 >= -1308
 c234: u_a14 - u_a3 - 879 y_a3_proc_1 >= -1308
 c235: u_a3 - u_a14 - 1199 y_a14_proc_1 >= -1275
 c236: u_a5 - u_a4 - 1291 y_a4_proc_0 >= -2582
 c237: u_a5 - u_a4 - 858 y_a4_proc_1 >= 0
 c238: u_a4 - u_a5 - 731 y_a5_proc_0 >= -2583
 c239: u_a4 - u_a5 - 1053 y_a5_proc_1 >= -1
 c240: u_a6 - u_a4 - 1291 y_a4_proc_0 >= -1308
 c241: u_a6 - u_a4 - 858 y_a4_proc_1 >= -1308
 c242: u_a4 - u_a6 - 810 y_a6_proc_0 >= -1275
 c243: u_a4 - u_a6 - 867 y_a6_proc_1 >= -1275
 c244: u_a7 - u_a4 - 1291 y_a4_proc_0 >= -1308
 c245: u_a4 - u_a7 - 1066 y_a7_proc_0 >= -1275
 c246: u_a8 - u_a4 - 1291 y_a4_proc_0 >= -1275
 c247: u_a4 - u_a8 - 1098 y_a8_proc_0 >= -1308
 c248: u_a9 - u_a4 - 1291 y_a4_proc_0 >= -1275
 c249: u_a4 - u_a9 - 1042 y_a9_proc_0 >= -1308
 c250: u_a10 - u_a4 - 1291 y_a4_proc_0 >= -1308
 c251: u_a4 - u_a10 - 1048 y_a10_proc_0 >= -1275
 c252: u_a11 - u_a4 - 1291 y_a4_proc_0 >= -2582
 c253: u_a11 - u_a4 - 858 y_a4_proc_1 >= 0
 c254: u_a4 - u_a11 - 848 y_a11_proc_0 >= -2583
 c255: u_a4 - u_a11 - 866 y_a11_proc_1 >= -1
 c256: u_a12 - u_a4 - 1291 y_a4_proc_0 >= -2583
 c257: u_a12 - u_a4 - 858 y_a4_proc_1 >= -1
 c258: u_a4 - u_a12 - 1271 y_a12_proc_0 >= -2582
 c259: u_a4 - u_a12 - 1088 y_a12_proc_1 >= 0
 c260: u_a13 - u_a4 - 858 y_a4_proc_1 >= 0
 c261: u_a4 - u_a13 - 548 y_a13_proc_1 >= -1
 c262: u_a14 - u_a4 - 858 y_a4_proc_1 >= -1
 c263: u_a4 - u_a14 - 1199 y_a14_proc_1 >= 0
 c264: u_a6 - u_a5 - 731 y_a5_proc_0 >= -1275
 c265: u_a6 - u_a5 - 1053 y_a5_proc_1 >= -1275
 c266: u_a5 - u_a6 - 810 y_a6_proc_0 >= -1308
 c267: u_a5 - u_a6 - 867 y_a6_proc_1 >= -1308
 c268: u_a7 - u_a5 - 731 y_a5_proc_0 >= -1275
 c269: u_a5 - u_a7 - 1066 y_a7_proc_0 >= -1308
 c270: u_a8 - u_a5 - 731 y_a5_proc_0 >= -1308
 c271: u_a5 - u_a8 - 1098 y_a8_proc_0 >= -1275
 c272: u_a9 - u_a5 - 731 y_a5_proc_0 >= -1308
 c273: u_a5 - u_a9 - 1042 y_a9_proc_0 >= -1275
 c274: u_a10 - u_a5 - 731 y_a5_proc_0 >= -1275
 c275: u_a5 - u_a10 - 1048 y_a10_proc_0 >= -1308
 c276: u_a11 - u_a5 - 731 y_a5_proc_0 >= -2583
 c277: u_a11 - u_a5 - 1053 y_a5_proc_1 >= -1
 c278: u_a5 - u_a11 - 848 y_a11_proc_0 >= -2582
 c279: u_a5 - u_a11 - 866 y_a11_proc_1 >= 0
 c280: u_a12 - u_a5 - 731 y_a5_proc_0 >= -2584
 c281: u_a12 - u_a5 - 1053 y_a5_proc_1 >= -2
 c282: u_a5 - u_a12 - 1271 y_a12_proc_0 >= -2581
 c283: u_a5 - u_a12 - 1088 y_a12_proc_1 >= 1
 c284: u_a13 - u_a5 - 1053 y_a5_proc_1 >= -1
 c285: u_a5 - u_a13 - 548 y_a13_proc_1 >= 0
 c286: u_a14 - u_a5 - 1053 y_a5_proc_1 >= -1
 c287: u_a5 - u_a14 - 1199 y_a14_proc_1 >= 0
 c288: u_a7 - u_a6 - 810 y_a6_proc_0 >= -1
 c289: u_a6 - u_a7 - 1066 y_a7_proc_0 >= 0
 c290: u_a8 - u_a6 - 810 y_a6_proc_0 >= 0
 c291: u_a6 - u_a8 - 1098 y_a8_proc_0 >= -1
 c292: u_a9 - u_a6 - 810 y_a6_proc_0 >= -1
 c293: u_a6 - u_a9 - 1042 y_a9_proc_0 >= 0
 c294: u_a10 - u_a6 - 810 y_a6_proc_0 >= -2
 c295: u_a6 - u_a10 - 1048 y_a10_proc_0 >= 1
 c296: u_a11 - u_a6 - 810 y_a6_proc_0 >= -1308
 c297: u_a11 - u_a6 - 867 y_a6_proc_1 >= -1308
 c298: u_a6 - u_a11 - 848 y_a11_proc_0 >= -1275
 c299: u_a6 - u_a11 - 866 y_a11_proc_1 >= -1275
 c300: u_a12 - u_a6 - 810 y_a6_proc_0 >= -1308
 c301: u_a12 - u_a6 - 867 y_a6_proc_1 >= -1308
 c302: u_a6 - u_a12 - 1271 y_a12_proc_0 >= -1275
 c303: u_a6 - u_a12 - 1088 y_a12_proc_1 >= -1275
 c304: u_a13 - u_a6 - 867 y_a6_proc_1 >= -1275
 c305: u_a6 - u_a13 - 548 y_a13_proc_1 >= -1308
 c306: u_a14 - u_a6 - 867 y_a6_proc_1 >= -1275
 c307: u_a6 - u_a14 - 1199 y_a14_proc_1 >= -1308
 c308: u_a8 - u_a7 - 1066 y_a7_proc_0 >= 0
 c309: u_a7 - u_a8 - 1098 y_a8_proc_0 >= -1
 c310: u_a9 - u_a7 - 1066 y_a7_proc_0 >= -1
 c311: u_a7 - u_a9 - 1042 y_a9_proc_0 >= 0
 c312: u_a10 - u_a7 - 1066 y_a7_proc_0 >= -2
 c313: u_a7 - u_a10 - 1048 y_a10_proc_0 >= 1
 c314: u_a11 - u_a7 - 1066 y_a7_proc_0 >= -1308
 c315: u_a7 - u_a11 - 848 y_a11_proc_0 >= -1275
 c316: u_a12 - u_a7 - 1066 y_a7_proc_0 >= -1308
 c317: u_a7 - u_a12 - 1271 y_a12_proc_0 >= -1275
 c318: u_a9 - u_a8 - 1098 y_a8_proc_0 >= -1
 c319: u_a8 - u_a9 - 1042 y_a9_proc_0 >= 0
 c320: u_a10 - u_a8 - 1098 y_a8_proc_0 >= -2
 c321: u_a8 - u_a10 - 1048 y_a10_proc_0 >= 1
 c322: u_a11 - u_a8 - 1098 y_a8_proc_0 >= -1308
 c323: u_a8 - u_a11 - 848 y_a11_proc_0 >= -1275
 c324: u_a12 - u_a8 - 1098 y_a8_proc_0 >= -1308
 c325: u_a8 - u_a12 - 1271 y_a12_proc_0 >= -1275
 c326: u_a10 - u_a9 - 1042 y_a9_proc_0 >= -1
 c327: u_a9 - u_a10 - 1048 y_a10_proc_0 >= 0
 c328: u_a11 - u_a9 - 1042 y_a9_proc_0 >= -1308
 c329: u_a9 - u_a11 - 848 y_a11_proc_0 >= -1275
 c330: u_a12 - u_a9 - 1042 y_a9_proc_0 >= -1275
 c331: u_a9 - u_a12 - 1271 y_a12_proc_0 >= -1308
 c332: u_a11 - u_a10 - 1048 y_a10_proc_0 >= -1308
 c333: u_a10 - u_a11 - 848 y_a11_proc_0 >= -1275
 c334: u_a12 - u_a10 - 1048 y_a10_proc_0 >= -1308
 c335: u_a10 - u_a12 - 1271 y_a12_proc_0 >= -1275
 c336: u_a12 - u_a11 - 848 y_a11_proc_0 >= -2583
 c337: u_a12 - u_a11 - 866 y_a11_proc_1 >= -1
 c338: u_a11 - u_a12 - 1271 y_a12_proc_0 >= -2582
 c339: u_a11 - u_a12 - 1088 y_a12_proc_1 >= 0
 c340: u_a13 - u_a11 - 866 y_a11_proc_1 >= -1
 c341: u_a11 - u_a13 - 548 y_a13_proc_1 >= 0
 c342: u_a14 - u_a11 - 866 y_a11_proc_1 >= -1
 c343: u_a11 - u_a14 - 1199 y_a14_proc_1 >= 0
 c344: u_a13 - u_a12 - 1088 y_a12_proc_1 >= 0
 c345: u_a12 - u_a13 - 548 y_a13_proc_1 >= -1
 c346: u_a14 - u_a12 - 1088 y_a12_proc_1 >= 0
 c347: u_a12 - u_a14 - 1199 y_a14_proc_1 >= -1
 c348: u_a14 - u_a13 - 548 y_a13_proc_1 >= -1
 c349: u_a13 - u_a14 - 1199 y_a14_proc_1 >= 0

Bounds
End
